14
0 95 65 3 82 34 86 15 89 89 61 58 14 48
36 0 66 45 13 51 39 62 56 55 6 6 48 16
12 15 0 81 99 13 86 13 3 62 32 84 15 28
16 58 21 0 64 86 59 49 17 6 28 31 90 53
34 14 49 72 0 11 89 63 90 30 3 62 68 44
61 30 60 82 90 0 96 83 48 10 64 67 38 67
37 85 100 84 30 47 0 94 28 31 87 84 97 74
3 84 31 28 10 49 83 0 49 61 51 68 2 61
77 3 23 80 44 9 73 77 0 39 59 9 36 79
39 24 14 96 86 3 25 97 35 0 92 55 29 88
87 62 56 21 3 71 11 43 53 78 0 32 40 39
55 99 24 77 46 23 12 10 90 55 64 0 73 43
3 87 15 66 74 44 53 61 48 75 11 20 0 55
67 60 25 34 34 23 30 66 83 42 33 18 22 0
